80 3160
1 2 213
1 3 115
1 4 236
1 5 34
1 6 40
1 7 96
1 8 105
1 9 113
1 10 152
1 11 213
1 12 211
1 13 97
1 14 94
1 15 94
1 16 203
1 17 155
1 18 69
1 19 148
1 20 206
1 21 151
1 22 64
1 23 164
1 24 130
1 25 15
1 26 102
1 27 167
1 28 223
1 29 58
1 30 195
1 31 160
1 32 11
1 33 24
1 34 3
1 35 123
1 36 174
1 37 204
1 38 78
1 39 26
1 40 13
1 41 150
1 42 205
1 43 23
1 44 159
1 45 212
1 46 32
1 47 50
1 48 208
1 49 212
1 50 66
1 51 104
1 52 1
1 53 123
1 54 193
1 55 20
1 56 118
1 57 209
1 58 59
1 59 220
1 60 134
1 61 84
1 62 187
1 63 44
1 64 29
1 65 107
1 66 121
1 67 192
1 68 206
1 69 59
1 70 188
1 71 210
1 72 47
1 73 163
1 74 132
1 75 115
1 76 4
1 77 184
1 78 78
1 79 16
1 80 4
2 3 207
2 4 165
2 5 179
2 6 170
2 7 232
2 8 67
2 9 46
2 10 78
2 11 219
2 12 236
2 13 132
2 14 11
2 15 228
2 16 206
2 17 237
2 18 213
2 19 154
2 20 209
2 21 33
2 22 78
2 23 220
2 24 148
2 25 86
2 26 166
2 27 14
2 28 9
2 29 212
2 30 171
2 31 54
2 32 92
2 33 217
2 34 177
2 35 32
2 36 216
2 37 100
2 38 162
2 39 55
2 40 6
2 41 33
2 42 150
2 43 227
2 44 85
2 45 185
2 46 18
2 47 230
2 48 169
2 49 92
2 50 234
2 51 18
2 52 131
2 53 233
2 54 120
2 55 220
2 56 171
2 57 71
2 58 205
2 59 19
2 60 95
2 61 17
2 62 65
2 63 123
2 64 92
2 65 94
2 66 185
2 67 97
2 68 225
2 69 193
2 70 0
2 71 91
2 72 238
2 73 234
2 74 52
2 75 65
2 76 59
2 77 77
2 78 179
2 79 133
2 80 13
3 4 232
3 5 149
3 6 169
3 7 69
3 8 213
3 9 73
3 10 140
3 11 146
3 12 174
3 13 107
3 14 19
3 15 229
3 16 49
3 17 228
3 18 6
3 19 88
3 20 200
3 21 217
3 22 227
3 23 125
3 24 224
3 25 186
3 26 87
3 27 145
3 28 158
3 29 68
3 30 144
3 31 83
3 32 104
3 33 197
3 34 140
3 35 166
3 36 39
3 37 234
3 38 88
3 39 159
3 40 143
3 41 179
3 42 187
3 43 131
3 44 83
3 45 234
3 46 111
3 47 118
3 48 222
3 49 58
3 50 142
3 51 62
3 52 163
3 53 10
3 54 147
3 55 198
3 56 234
3 57 214
3 58 199
3 59 216
3 60 119
3 61 154
3 62 17
3 63 239
3 64 70
3 65 234
3 66 231
3 67 92
3 68 221
3 69 193
3 70 234
3 71 151
3 72 239
3 73 164
3 74 74
3 75 231
3 76 170
3 77 66
3 78 71
3 79 57
3 80 21
4 5 114
4 6 76
4 7 11
4 8 238
4 9 101
4 10 220
4 11 51
4 12 139
4 13 26
4 14 175
4 15 140
4 16 35
4 17 48
4 18 195
4 19 7
4 20 161
4 21 111
4 22 153
4 23 106
4 24 14
4 25 93
4 26 151
4 27 173
4 28 154
4 29 62
4 30 206
4 31 50
4 32 59
4 33 7
4 34 146
4 35 18
4 36 35
4 37 88
4 38 13
4 39 49
4 40 112
4 41 99
4 42 113
4 43 155
4 44 222
4 45 105
4 46 35
4 47 3
4 48 43
4 49 187
4 50 200
4 51 105
4 52 232
4 53 172
4 54 28
4 55 159
4 56 24
4 57 192
4 58 75
4 59 127
4 60 122
4 61 221
4 62 230
4 63 88
4 64 234
4 65 228
4 66 84
4 67 186
4 68 105
4 69 63
4 70 81
4 71 26
4 72 154
4 73 204
4 74 24
4 75 182
4 76 107
4 77 3
4 78 95
4 79 62
4 80 150
5 6 170
5 7 234
5 8 18
5 9 99
5 10 103
5 11 149
5 12 102
5 13 215
5 14 178
5 15 48
5 16 215
5 17 121
5 18 44
5 19 80
5 20 118
5 21 158
5 22 227
5 23 51
5 24 236
5 25 20
5 26 55
5 27 160
5 28 8
5 29 227
5 30 172
5 31 5
5 32 69
5 33 6
5 34 76
5 35 215
5 36 114
5 37 136
5 38 77
5 39 190
5 40 153
5 41 125
5 42 81
5 43 72
5 44 200
5 45 58
5 46 145
5 47 184
5 48 34
5 49 139
5 50 84
5 51 223
5 52 65
5 53 234
5 54 134
5 55 39
5 56 169
5 57 204
5 58 75
5 59 69
5 60 50
5 61 79
5 62 233
5 63 144
5 64 79
5 65 81
5 66 236
5 67 24
5 68 120
5 69 199
5 70 124
5 71 148
5 72 76
5 73 149
5 74 198
5 75 150
5 76 35
5 77 154
5 78 209
5 79 159
5 80 228
6 7 40
6 8 218
6 9 107
6 10 161
6 11 145
6 12 45
6 13 77
6 14 84
6 15 11
6 16 113
6 17 232
6 18 69
6 19 8
6 20 230
6 21 155
6 22 195
6 23 80
6 24 14
6 25 177
6 26 202
6 27 43
6 28 23
6 29 223
6 30 206
6 31 21
6 32 189
6 33 67
6 34 218
6 35 189
6 36 59
6 37 143
6 38 218
6 39 119
6 40 90
6 41 167
6 42 177
6 43 50
6 44 2
6 45 226
6 46 177
6 47 139
6 48 125
6 49 182
6 50 135
6 51 132
6 52 215
6 53 45
6 54 227
6 55 201
6 56 46
6 57 55
6 58 190
6 59 184
6 60 1
6 61 84
6 62 108
6 63 179
6 64 187
6 65 120
6 66 133
6 67 86
6 68 65
6 69 184
6 70 189
6 71 91
6 72 209
6 73 144
6 74 225
6 75 8
6 76 55
6 77 143
6 78 193
6 79 207
6 80 99
7 8 199
7 9 143
7 10 198
7 11 45
7 12 71
7 13 44
7 14 214
7 15 202
7 16 126
7 17 23
7 18 169
7 19 189
7 20 172
7 21 154
7 22 135
7 23 54
7 24 30
7 25 204
7 26 174
7 27 5
7 28 178
7 29 78
7 30 45
7 31 0
7 32 63
7 33 238
7 34 117
7 35 228
7 36 40
7 37 132
7 38 105
7 39 114
7 40 196
7 41 92
7 42 24
7 43 17
7 44 220
7 45 39
7 46 22
7 47 230
7 48 206
7 49 150
7 50 121
7 51 176
7 52 185
7 53 117
7 54 155
7 55 192
7 56 44
7 57 45
7 58 120
7 59 118
7 60 217
7 61 57
7 62 25
7 63 8
7 64 90
7 65 163
7 66 42
7 67 181
7 68 96
7 69 228
7 70 225
7 71 99
7 72 100
7 73 202
7 74 154
7 75 21
7 76 211
7 77 229
7 78 228
7 79 44
7 80 100
8 9 90
8 10 166
8 11 227
8 12 156
8 13 0
8 14 129
8 15 40
8 16 31
8 17 51
8 18 122
8 19 151
8 20 113
8 21 18
8 22 43
8 23 110
8 24 78
8 25 16
8 26 49
8 27 74
8 28 226
8 29 150
8 30 20
8 31 56
8 32 232
8 33 231
8 34 187
8 35 138
8 36 89
8 37 74
8 38 59
8 39 10
8 40 5
8 41 39
8 42 96
8 43 79
8 44 76
8 45 134
8 46 152
8 47 227
8 48 21
8 49 180
8 50 23
8 51 177
8 52 47
8 53 85
8 54 137
8 55 153
8 56 105
8 57 183
8 58 100
8 59 155
8 60 113
8 61 229
8 62 123
8 63 158
8 64 96
8 65 32
8 66 18
8 67 50
8 68 39
8 69 230
8 70 12
8 71 228
8 72 167
8 73 200
8 74 116
8 75 53
8 76 56
8 77 207
8 78 45
8 79 1
8 80 200
9 10 168
9 11 26
9 12 190
9 13 32
9 14 17
9 15 32
9 16 133
9 17 94
9 18 104
9 19 28
9 20 33
9 21 23
9 22 109
9 23 231
9 24 231
9 25 220
9 26 23
9 27 215
9 28 106
9 29 183
9 30 118
9 31 87
9 32 43
9 33 15
9 34 28
9 35 5
9 36 112
9 37 192
9 38 216
9 39 103
9 40 237
9 41 231
9 42 27
9 43 34
9 44 143
9 45 18
9 46 82
9 47 194
9 48 116
9 49 226
9 50 173
9 51 143
9 52 64
9 53 41
9 54 58
9 55 210
9 56 20
9 57 88
9 58 233
9 59 106
9 60 34
9 61 82
9 62 134
9 63 155
9 64 3
9 65 145
9 66 97
9 67 182
9 68 98
9 69 24
9 70 15
9 71 223
9 72 156
9 73 77
9 74 33
9 75 60
9 76 167
9 77 101
9 78 208
9 79 151
9 80 152
10 11 219
10 12 90
10 13 37
10 14 157
10 15 42
10 16 21
10 17 3
10 18 128
10 19 136
10 20 21
10 21 208
10 22 164
10 23 187
10 24 121
10 25 122
10 26 131
10 27 143
10 28 17
10 29 25
10 30 91
10 31 198
10 32 55
10 33 165
10 34 122
10 35 24
10 36 237
10 37 120
10 38 179
10 39 130
10 40 166
10 41 31
10 42 149
10 43 58
10 44 182
10 45 123
10 46 214
10 47 188
10 48 140
10 49 84
10 50 85
10 51 122
10 52 32
10 53 236
10 54 48
10 55 163
10 56 233
10 57 171
10 58 140
10 59 62
10 60 114
10 61 189
10 62 239
10 63 32
10 64 226
10 65 57
10 66 184
10 67 116
10 68 37
10 69 95
10 70 217
10 71 65
10 72 15
10 73 151
10 74 220
10 75 91
10 76 48
10 77 69
10 78 143
10 79 38
10 80 1
11 12 222
11 13 29
11 14 47
11 15 203
11 16 43
11 17 203
11 18 45
11 19 97
11 20 93
11 21 190
11 22 202
11 23 89
11 24 32
11 25 69
11 26 52
11 27 168
11 28 208
11 29 123
11 30 28
11 31 218
11 32 217
11 33 59
11 34 163
11 35 172
11 36 214
11 37 222
11 38 117
11 39 224
11 40 23
11 41 16
11 42 132
11 43 140
11 44 88
11 45 218
11 46 164
11 47 2
11 48 183
11 49 210
11 50 7
11 51 127
11 52 93
11 53 17
11 54 23
11 55 157
11 56 141
11 57 7
11 58 212
11 59 62
11 60 118
11 61 173
11 62 24
11 63 187
11 64 112
11 65 213
11 66 191
11 67 156
11 68 107
11 69 231
11 70 202
11 71 116
11 72 161
11 73 230
11 74 128
11 75 219
11 76 165
11 77 148
11 78 103
11 79 72
11 80 184
12 13 103
12 14 122
12 15 55
12 16 153
12 17 188
12 18 73
12 19 111
12 20 220
12 21 235
12 22 163
12 23 43
12 24 11
12 25 56
12 26 213
12 27 174
12 28 92
12 29 225
12 30 16
12 31 156
12 32 182
12 33 55
12 34 60
12 35 56
12 36 112
12 37 182
12 38 190
12 39 230
12 40 14
12 41 129
12 42 10
12 43 61
12 44 75
12 45 7
12 46 179
12 47 56
12 48 3
12 49 30
12 50 227
12 51 171
12 52 233
12 53 73
12 54 89
12 55 135
12 56 19
12 57 58
12 58 81
12 59 162
12 60 162
12 61 90
12 62 4
12 63 83
12 64 107
12 65 231
12 66 16
12 67 52
12 68 175
12 69 205
12 70 166
12 71 88
12 72 166
12 73 76
12 74 68
12 75 163
12 76 235
12 77 155
12 78 22
12 79 148
12 80 177
13 14 60
13 15 70
13 16 161
13 17 227
13 18 132
13 19 184
13 20 78
13 21 92
13 22 191
13 23 218
13 24 7
13 25 206
13 26 234
13 27 129
13 28 34
13 29 97
13 30 149
13 31 190
13 32 65
13 33 32
13 34 125
13 35 121
13 36 223
13 37 3
13 38 115
13 39 67
13 40 13
13 41 123
13 42 81
13 43 94
13 44 49
13 45 66
13 46 193
13 47 37
13 48 57
13 49 220
13 50 66
13 51 145
13 52 35
13 53 78
13 54 118
13 55 94
13 56 44
13 57 182
13 58 22
13 59 231
13 60 30
13 61 120
13 62 15
13 63 104
13 64 152
13 65 72
13 66 193
13 67 236
13 68 218
13 69 3
13 70 216
13 71 208
13 72 55
13 73 212
13 74 82
13 75 133
13 76 40
13 77 23
13 78 18
13 79 36
13 80 170
14 15 34
14 16 218
14 17 105
14 18 99
14 19 37
14 20 239
14 21 61
14 22 105
14 23 85
14 24 166
14 25 96
14 26 49
14 27 152
14 28 56
14 29 129
14 30 9
14 31 24
14 32 93
14 33 208
14 34 29
14 35 130
14 36 83
14 37 161
14 38 154
14 39 167
14 40 72
14 41 16
14 42 5
14 43 103
14 44 53
14 45 149
14 46 143
14 47 220
14 48 104
14 49 36
14 50 83
14 51 22
14 52 58
14 53 28
14 54 215
14 55 109
14 56 226
14 57 112
14 58 222
14 59 33
14 60 0
14 61 94
14 62 106
14 63 31
14 64 235
14 65 163
14 66 155
14 67 28
14 68 88
14 69 73
14 70 130
14 71 116
14 72 105
14 73 139
14 74 179
14 75 78
14 76 97
14 77 216
14 78 73
14 79 212
14 80 27
15 16 193
15 17 126
15 18 13
15 19 171
15 20 80
15 21 56
15 22 237
15 23 105
15 24 205
15 25 156
15 26 46
15 27 40
15 28 170
15 29 156
15 30 110
15 31 71
15 32 206
15 33 72
15 34 0
15 35 178
15 36 110
15 37 222
15 38 74
15 39 195
15 40 69
15 41 201
15 42 20
15 43 221
15 44 137
15 45 52
15 46 201
15 47 215
15 48 165
15 49 226
15 50 50
15 51 136
15 52 120
15 53 29
15 54 216
15 55 82
15 56 18
15 57 111
15 58 127
15 59 115
15 60 160
15 61 229
15 62 71
15 63 221
15 64 25
15 65 1
15 66 121
15 67 202
15 68 9
15 69 183
15 70 109
15 71 235
15 72 155
15 73 200
15 74 194
15 75 190
15 76 132
15 77 159
15 78 68
15 79 70
15 80 204
16 17 162
16 18 175
16 19 100
16 20 47
16 21 59
16 22 46
16 23 210
16 24 8
16 25 186
16 26 63
16 27 1
16 28 55
16 29 118
16 30 3
16 31 132
16 32 123
16 33 173
16 34 175
16 35 110
16 36 88
16 37 44
16 38 220
16 39 153
16 40 103
16 41 84
16 42 171
16 43 58
16 44 96
16 45 48
16 46 192
16 47 55
16 48 74
16 49 46
16 50 46
16 51 65
16 52 73
16 53 99
16 54 152
16 55 28
16 56 120
16 57 196
16 58 112
16 59 106
16 60 233
16 61 190
16 62 145
16 63 68
16 64 75
16 65 109
16 66 104
16 67 80
16 68 32
16 69 212
16 70 27
16 71 129
16 72 51
16 73 216
16 74 105
16 75 84
16 76 101
16 77 204
16 78 71
16 79 79
16 80 39
17 18 191
17 19 0
17 20 113
17 21 106
17 22 110
17 23 72
17 24 115
17 25 152
17 26 68
17 27 226
17 28 76
17 29 77
17 30 78
17 31 165
17 32 75
17 33 172
17 34 2
17 35 29
17 36 53
17 37 227
17 38 141
17 39 13
17 40 111
17 41 29
17 42 6
17 43 136
17 44 91
17 45 171
17 46 94
17 47 121
17 48 66
17 49 161
17 50 6
17 51 157
17 52 208
17 53 119
17 54 154
17 55 55
17 56 215
17 57 89
17 58 239
17 59 200
17 60 139
17 61 101
17 62 209
17 63 91
17 64 83
17 65 102
17 66 182
17 67 5
17 68 37
17 69 68
17 70 127
17 71 17
17 72 15
17 73 91
17 74 27
17 75 154
17 76 150
17 77 233
17 78 114
17 79 207
17 80 202
18 19 164
18 20 225
18 21 214
18 22 131
18 23 151
18 24 172
18 25 51
18 26 82
18 27 170
18 28 76
18 29 29
18 30 183
18 31 238
18 32 196
18 33 121
18 34 97
18 35 120
18 36 161
18 37 170
18 38 106
18 39 50
18 40 117
18 41 125
18 42 80
18 43 38
18 44 29
18 45 88
18 46 171
18 47 78
18 48 90
18 49 237
18 50 180
18 51 14
18 52 208
18 53 1
18 54 91
18 55 167
18 56 96
18 57 126
18 58 195
18 59 68
18 60 23
18 61 23
18 62 64
18 63 167
18 64 204
18 65 76
18 66 129
18 67 151
18 68 168
18 69 145
18 70 89
18 71 27
18 72 194
18 73 64
18 74 92
18 75 194
18 76 229
18 77 43
18 78 156
18 79 56
18 80 69
19 20 115
19 21 100
19 22 71
19 23 178
19 24 125
19 25 232
19 26 122
19 27 118
19 28 239
19 29 87
19 30 52
19 31 129
19 32 82
19 33 134
19 34 114
19 35 79
19 36 159
19 37 177
19 38 131
19 39 29
19 40 94
19 41 235
19 42 161
19 43 108
19 44 130
19 45 176
19 46 212
19 47 83
19 48 161
19 49 61
19 50 161
19 51 144
19 52 7
19 53 131
19 54 2
19 55 104
19 56 20
19 57 233
19 58 214
19 59 230
19 60 204
19 61 45
19 62 204
19 63 211
19 64 10
19 65 168
19 66 101
19 67 145
19 68 32
19 69 122
19 70 58
19 71 127
19 72 229
19 73 234
19 74 124
19 75 17
19 76 135
19 77 209
19 78 44
19 79 169
19 80 187
20 21 34
20 22 193
20 23 57
20 24 229
20 25 65
20 26 178
20 27 0
20 28 102
20 29 128
20 30 239
20 31 68
20 32 12
20 33 97
20 34 41
20 35 141
20 36 184
20 37 73
20 38 15
20 39 141
20 40 38
20 41 164
20 42 228
20 43 174
20 44 77
20 45 154
20 46 144
20 47 11
20 48 139
20 49 192
20 50 193
20 51 202
20 52 206
20 53 179
20 54 50
20 55 64
20 56 180
20 57 223
20 58 131
20 59 135
20 60 93
20 61 89
20 62 56
20 63 30
20 64 107
20 65 44
20 66 39
20 67 70
20 68 91
20 69 32
20 70 191
20 71 90
20 72 15
20 73 84
20 74 113
20 75 29
20 76 211
20 77 75
20 78 2
20 79 51
20 80 61
21 22 104
21 23 29
21 24 57
21 25 51
21 26 31
21 27 8
21 28 123
21 29 60
21 30 121
21 31 1
21 32 214
21 33 60
21 34 139
21 35 158
21 36 164
21 37 26
21 38 108
21 39 44
21 40 29
21 41 191
21 42 8
21 43 116
21 44 75
21 45 26
21 46 239
21 47 5
21 48 38
21 49 108
21 50 42
21 51 73
21 52 15
21 53 71
21 54 233
21 55 82
21 56 83
21 57 198
21 58 104
21 59 37
21 60 213
21 61 57
21 62 54
21 63 46
21 64 0
21 65 122
21 66 231
21 67 170
21 68 78
21 69 42
21 70 36
21 71 88
21 72 62
21 73 173
21 74 85
21 75 20
21 76 215
21 77 102
21 78 201
21 79 187
21 80 57
22 23 2
22 24 199
22 25 104
22 26 119
22 27 27
22 28 141
22 29 175
22 30 197
22 31 136
22 32 204
22 33 234
22 34 33
22 35 58
22 36 90
22 37 143
22 38 113
22 39 66
22 40 73
22 41 77
22 42 229
22 43 159
22 44 25
22 45 81
22 46 156
22 47 160
22 48 4
22 49 115
22 50 192
22 51 156
22 52 238
22 53 22
22 54 96
22 55 82
22 56 130
22 57 9
22 58 22
22 59 163
22 60 168
22 61 176
22 62 196
22 63 64
22 64 36
22 65 123
22 66 17
22 67 168
22 68 88
22 69 132
22 70 131
22 71 16
22 72 202
22 73 225
22 74 188
22 75 214
22 76 5
22 77 69
22 78 33
22 79 209
22 80 45
23 24 64
23 25 167
23 26 13
23 27 139
23 28 164
23 29 89
23 30 79
23 31 64
23 32 54
23 33 199
23 34 107
23 35 58
23 36 58
23 37 219
23 38 39
23 39 31
23 40 90
23 41 123
23 42 199
23 43 197
23 44 166
23 45 220
23 46 8
23 47 113
23 48 147
23 49 98
23 50 172
23 51 110
23 52 139
23 53 198
23 54 16
23 55 233
23 56 154
23 57 71
23 58 38
23 59 45
23 60 8
23 61 175
23 62 110
23 63 6
23 64 34
23 65 11
23 66 218
23 67 191
23 68 10
23 69 155
23 70 66
23 71 69
23 72 154
23 73 81
23 74 163
23 75 222
23 76 99
23 77 93
23 78 167
23 79 180
23 80 100
24 25 31
24 26 189
24 27 221
24 28 206
24 29 17
24 30 128
24 31 185
24 32 109
24 33 10
24 34 9
24 35 232
24 36 114
24 37 229
24 38 181
24 39 78
24 40 81
24 41 150
24 42 115
24 43 59
24 44 93
24 45 55
24 46 45
24 47 239
24 48 235
24 49 108
24 50 141
24 51 120
24 52 40
24 53 200
24 54 207
24 55 61
24 56 50
24 57 8
24 58 123
24 59 169
24 60 6
24 61 141
24 62 224
24 63 44
24 64 148
24 65 131
24 66 68
24 67 2
24 68 164
24 69 89
24 70 226
24 71 31
24 72 122
24 73 227
24 74 2
24 75 215
24 76 197
24 77 198
24 78 210
24 79 4
24 80 122
25 26 160
25 27 111
25 28 61
25 29 220
25 30 26
25 31 99
25 32 37
25 33 231
25 34 20
25 35 151
25 36 165
25 37 18
25 38 194
25 39 223
25 40 87
25 41 163
25 42 93
25 43 27
25 44 150
25 45 148
25 46 0
25 47 87
25 48 207
25 49 178
25 50 95
25 51 77
25 52 221
25 53 172
25 54 109
25 55 159
25 56 140
25 57 21
25 58 123
25 59 100
25 60 150
25 61 58
25 62 116
25 63 99
25 64 154
25 65 219
25 66 130
25 67 217
25 68 163
25 69 192
25 70 217
25 71 116
25 72 90
25 73 101
25 74 53
25 75 14
25 76 93
25 77 177
25 78 78
25 79 121
25 80 28
26 27 39
26 28 4
26 29 61
26 30 20
26 31 138
26 32 78
26 33 233
26 34 72
26 35 233
26 36 156
26 37 156
26 38 176
26 39 91
26 40 164
26 41 130
26 42 125
26 43 173
26 44 110
26 45 156
26 46 73
26 47 7
26 48 211
26 49 57
26 50 130
26 51 182
26 52 214
26 53 195
26 54 191
26 55 32
26 56 127
26 57 162
26 58 231
26 59 11
26 60 152
26 61 151
26 62 24
26 63 66
26 64 205
26 65 68
26 66 203
26 67 193
26 68 112
26 69 181
26 70 86
26 71 172
26 72 229
26 73 115
26 74 111
26 75 142
26 76 86
26 77 119
26 78 171
26 79 193
26 80 136
27 28 52
27 29 135
27 30 24
27 31 165
27 32 97
27 33 159
27 34 178
27 35 30
27 36 52
27 37 183
27 38 68
27 39 44
27 40 169
27 41 100
27 42 117
27 43 126
27 44 149
27 45 36
27 46 41
27 47 228
27 48 153
27 49 51
27 50 160
27 51 168
27 52 170
27 53 194
27 54 78
27 55 237
27 56 149
27 57 214
27 58 142
27 59 44
27 60 207
27 61 181
27 62 99
27 63 152
27 64 92
27 65 107
27 66 13
27 67 43
27 68 209
27 69 17
27 70 96
27 71 117
27 72 48
27 73 123
27 74 212
27 75 175
27 76 132
27 77 9
27 78 134
27 79 127
27 80 117
28 29 173
28 30 189
28 31 239
28 32 156
28 33 234
28 34 226
28 35 185
28 36 195
28 37 135
28 38 140
28 39 180
28 40 88
28 41 21
28 42 20
28 43 213
28 44 231
28 45 126
28 46 98
28 47 89
28 48 150
28 49 222
28 50 156
28 51 193
28 52 204
28 53 148
28 54 155
28 55 14
28 56 103
28 57 67
28 58 220
28 59 204
28 60 114
28 61 221
28 62 204
28 63 123
28 64 213
28 65 59
28 66 134
28 67 61
28 68 152
28 69 158
28 70 75
28 71 152
28 72 123
28 73 220
28 74 133
28 75 208
28 76 72
28 77 206
28 78 41
28 79 116
28 80 118
29 30 201
29 31 154
29 32 110
29 33 150
29 34 162
29 35 40
29 36 152
29 37 213
29 38 183
29 39 168
29 40 161
29 41 239
29 42 182
29 43 196
29 44 199
29 45 234
29 46 89
29 47 44
29 48 171
29 49 44
29 50 114
29 51 140
29 52 84
29 53 193
29 54 225
29 55 21
29 56 34
29 57 66
29 58 38
29 59 159
29 60 178
29 61 54
29 62 81
29 63 23
29 64 87
29 65 99
29 66 215
29 67 232
29 68 223
29 69 37
29 70 46
29 71 184
29 72 162
29 73 69
29 74 62
29 75 36
29 76 73
29 77 32
29 78 164
29 79 53
29 80 23
30 31 164
30 32 64
30 33 52
30 34 232
30 35 114
30 36 200
30 37 122
30 38 134
30 39 236
30 40 209
30 41 184
30 42 223
30 43 69
30 44 211
30 45 32
30 46 78
30 47 93
30 48 111
30 49 75
30 50 222
30 51 205
30 52 99
30 53 177
30 54 185
30 55 59
30 56 207
30 57 69
30 58 91
30 59 38
30 60 41
30 61 26
30 62 93
30 63 71
30 64 210
30 65 182
30 66 123
30 67 184
30 68 136
30 69 79
30 70 194
30 71 53
30 72 27
30 73 97
30 74 216
30 75 111
30 76 85
30 77 186
30 78 72
30 79 130
30 80 117
31 32 203
31 33 55
31 34 117
31 35 110
31 36 143
31 37 178
31 38 123
31 39 218
31 40 109
31 41 92
31 42 70
31 43 14
31 44 101
31 45 59
31 46 86
31 47 19
31 48 54
31 49 72
31 50 225
31 51 110
31 52 3
31 53 219
31 54 39
31 55 223
31 56 11
31 57 112
31 58 62
31 59 50
31 60 190
31 61 101
31 62 93
31 63 221
31 64 33
31 65 50
31 66 111
31 67 139
31 68 143
31 69 17
31 70 56
31 71 57
31 72 215
31 73 192
31 74 132
31 75 166
31 76 177
31 77 110
31 78 140
31 79 78
31 80 34
32 33 205
32 34 196
32 35 128
32 36 71
32 37 24
32 38 187
32 39 14
32 40 107
32 41 200
32 42 185
32 43 128
32 44 32
32 45 131
32 46 158
32 47 51
32 48 114
32 49 121
32 50 129
32 51 136
32 52 61
32 53 208
32 54 78
32 55 11
32 56 117
32 57 230
32 58 99
32 59 43
32 60 2
32 61 58
32 62 209
32 63 182
32 64 4
32 65 45
32 66 92
32 67 108
32 68 55
32 69 223
32 70 164
32 71 70
32 72 153
32 73 88
32 74 146
32 75 143
32 76 103
32 77 127
32 78 204
32 79 170
32 80 165
33 34 4
33 35 138
33 36 126
33 37 172
33 38 151
33 39 79
33 40 45
33 41 189
33 42 56
33 43 218
33 44 195
33 45 123
33 46 70
33 47 213
33 48 73
33 49 99
33 50 18
33 51 23
33 52 91
33 53 75
33 54 147
33 55 51
33 56 66
33 57 232
33 58 120
33 59 134
33 60 127
33 61 206
33 62 150
33 63 84
33 64 121
33 65 73
33 66 69
33 67 52
33 68 187
33 69 174
33 70 81
33 71 184
33 72 97
33 73 160
33 74 196
33 75 155
33 76 230
33 77 20
33 78 145
33 79 233
33 80 60
34 35 98
34 36 104
34 37 54
34 38 97
34 39 62
34 40 120
34 41 200
34 42 229
34 43 185
34 44 96
34 45 146
34 46 16
34 47 185
34 48 137
34 49 218
34 50 189
34 51 167
34 52 87
34 53 181
34 54 136
34 55 60
34 56 56
34 57 113
34 58 143
34 59 153
34 60 85
34 61 76
34 62 91
34 63 209
34 64 93
34 65 60
34 66 142
34 67 70
34 68 142
34 69 180
34 70 35
34 71 148
34 72 83
34 73 150
34 74 37
34 75 167
34 76 205
34 77 73
34 78 138
34 79 232
34 80 115
35 36 147
35 37 19
35 38 183
35 39 39
35 40 103
35 41 10
35 42 94
35 43 131
35 44 88
35 45 22
35 46 72
35 47 64
35 48 143
35 49 135
35 50 224
35 51 82
35 52 192
35 53 194
35 54 223
35 55 126
35 56 223
35 57 56
35 58 57
35 59 187
35 60 134
35 61 115
35 62 136
35 63 238
35 64 63
35 65 111
35 66 165
35 67 211
35 68 49
35 69 88
35 70 9
35 71 165
35 72 98
35 73 20
35 74 124
35 75 107
35 76 131
35 77 16
35 78 80
35 79 141
35 80 207
36 37 209
36 38 65
36 39 131
36 40 236
36 41 198
36 42 40
36 43 124
36 44 145
36 45 232
36 46 169
36 47 114
36 48 49
36 49 107
36 50 220
36 51 234
36 52 231
36 53 208
36 54 92
36 55 151
36 56 221
36 57 155
36 58 154
36 59 99
36 60 136
36 61 12
36 62 94
36 63 223
36 64 222
36 65 213
36 66 86
36 67 173
36 68 238
36 69 125
36 70 151
36 71 145
36 72 92
36 73 143
36 74 197
36 75 138
36 76 205
36 77 85
36 78 8
36 79 51
36 80 41
37 38 232
37 39 190
37 40 116
37 41 119
37 42 232
37 43 46
37 44 125
37 45 38
37 46 137
37 47 123
37 48 239
37 49 234
37 50 232
37 51 230
37 52 148
37 53 232
37 54 21
37 55 0
37 56 152
37 57 163
37 58 202
37 59 11
37 60 113
37 61 63
37 62 38
37 63 168
37 64 189
37 65 24
37 66 109
37 67 33
37 68 27
37 69 149
37 70 197
37 71 84
37 72 203
37 73 138
37 74 175
37 75 192
37 76 31
37 77 227
37 78 70
37 79 44
37 80 77
38 39 56
38 40 80
38 41 0
38 42 203
38 43 113
38 44 210
38 45 209
38 46 225
38 47 202
38 48 47
38 49 128
38 50 236
38 51 43
38 52 202
38 53 167
38 54 87
38 55 214
38 56 14
38 57 17
38 58 74
38 59 181
38 60 186
38 61 172
38 62 163
38 63 209
38 64 230
38 65 149
38 66 22
38 67 37
38 68 31
38 69 204
38 70 25
38 71 172
38 72 106
38 73 184
38 74 235
38 75 26
38 76 128
38 77 50
38 78 90
38 79 50
38 80 31
39 40 148
39 41 174
39 42 173
39 43 46
39 44 49
39 45 161
39 46 120
39 47 81
39 48 158
39 49 87
39 50 41
39 51 25
39 52 213
39 53 110
39 54 120
39 55 231
39 56 5
39 57 213
39 58 113
39 59 187
39 60 113
39 61 62
39 62 107
39 63 112
39 64 86
39 65 144
39 66 51
39 67 49
39 68 90
39 69 44
39 70 106
39 71 115
39 72 77
39 73 114
39 74 12
39 75 197
39 76 212
39 77 166
39 78 186
39 79 90
39 80 210
40 41 44
40 42 90
40 43 35
40 44 163
40 45 43
40 46 0
40 47 63
40 48 186
40 49 188
40 50 43
40 51 88
40 52 217
40 53 39
40 54 206
40 55 87
40 56 226
40 57 170
40 58 123
40 59 231
40 60 202
40 61 73
40 62 214
40 63 235
40 64 142
40 65 102
40 66 76
40 67 171
40 68 221
40 69 124
40 70 220
40 71 137
40 72 78
40 73 56
40 74 80
40 75 74
40 76 70
40 77 114
40 78 38
40 79 172
40 80 230
41 42 31
41 43 174
41 44 25
41 45 32
41 46 184
41 47 147
41 48 176
41 49 218
41 50 17
41 51 198
41 52 106
41 53 105
41 54 119
41 55 50
41 56 119
41 57 97
41 58 28
41 59 156
41 60 59
41 61 174
41 62 175
41 63 215
41 64 52
41 65 117
41 66 8
41 67 5
41 68 239
41 69 226
41 70 203
41 71 149
41 72 69
41 73 123
41 74 180
41 75 93
41 76 22
41 77 238
41 78 164
41 79 33
41 80 144
42 43 73
42 44 42
42 45 203
42 46 42
42 47 76
42 48 166
42 49 27
42 50 208
42 51 159
42 52 106
42 53 73
42 54 72
42 55 35
42 56 142
42 57 135
42 58 238
42 59 196
42 60 145
42 61 197
42 62 230
42 63 186
42 64 75
42 65 207
42 66 6
42 67 125
42 68 117
42 69 235
42 70 106
42 71 109
42 72 169
42 73 233
42 74 103
42 75 90
42 76 9
42 77 180
42 78 174
42 79 64
42 80 9
43 44 90
43 45 208
43 46 76
43 47 23
43 48 32
43 49 18
43 50 187
43 51 220
43 52 50
43 53 101
43 54 192
43 55 76
43 56 80
43 57 115
43 58 2
43 59 13
43 60 12
43 61 122
43 62 93
43 63 48
43 64 150
43 65 132
43 66 206
43 67 137
43 68 42
43 69 167
43 70 116
43 71 1
43 72 55
43 73 198
43 74 228
43 75 97
43 76 5
43 77 107
43 78 69
43 79 236
43 80 146
44 45 229
44 46 214
44 47 168
44 48 181
44 49 42
44 50 24
44 51 225
44 52 143
44 53 204
44 54 135
44 55 147
44 56 213
44 57 18
44 58 157
44 59 175
44 60 23
44 61 205
44 62 57
44 63 131
44 64 82
44 65 143
44 66 29
44 67 149
44 68 160
44 69 198
44 70 215
44 71 16
44 72 139
44 73 162
44 74 3
44 75 235
44 76 148
44 77 121
44 78 205
44 79 15
44 80 97
45 46 111
45 47 10
45 48 239
45 49 99
45 50 53
45 51 104
45 52 147
45 53 155
45 54 52
45 55 173
45 56 212
45 57 81
45 58 0
45 59 235
45 60 82
45 61 74
45 62 59
45 63 218
45 64 6
45 65 169
45 66 206
45 67 61
45 68 9
45 69 149
45 70 141
45 71 233
45 72 222
45 73 170
45 74 116
45 75 223
45 76 216
45 77 167
45 78 73
45 79 214
45 80 129
46 47 226
46 48 83
46 49 161
46 50 16
46 51 26
46 52 156
46 53 20
46 54 189
46 55 57
46 56 107
46 57 207
46 58 233
46 59 110
46 60 20
46 61 66
46 62 67
46 63 216
46 64 87
46 65 141
46 66 33
46 67 186
46 68 181
46 69 51
46 70 87
46 71 182
46 72 38
46 73 168
46 74 6
46 75 237
46 76 125
46 77 9
46 78 98
46 79 123
46 80 213
47 48 192
47 49 60
47 50 117
47 51 231
47 52 35
47 53 60
47 54 55
47 55 61
47 56 151
47 57 8
47 58 186
47 59 220
47 60 224
47 61 215
47 62 9
47 63 55
47 64 59
47 65 183
47 66 219
47 67 47
47 68 137
47 69 64
47 70 196
47 71 146
47 72 50
47 73 201
47 74 40
47 75 239
47 76 62
47 77 47
47 78 202
47 79 53
47 80 2
48 49 7
48 50 209
48 51 204
48 52 79
48 53 235
48 54 227
48 55 23
48 56 62
48 57 41
48 58 49
48 59 62
48 60 86
48 61 213
48 62 194
48 63 56
48 64 117
48 65 24
48 66 41
48 67 147
48 68 197
48 69 201
48 70 194
48 71 36
48 72 64
48 73 14
48 74 100
48 75 229
48 76 55
48 77 16
48 78 199
48 79 20
48 80 203
49 50 229
49 51 222
49 52 204
49 53 63
49 54 76
49 55 148
49 56 224
49 57 61
49 58 3
49 59 12
49 60 208
49 61 95
49 62 101
49 63 166
49 64 53
49 65 74
49 66 119
49 67 217
49 68 188
49 69 52
49 70 220
49 71 87
49 72 194
49 73 46
49 74 46
49 75 12
49 76 55
49 77 67
49 78 205
49 79 44
49 80 221
50 51 221
50 52 213
50 53 8
50 54 110
50 55 62
50 56 70
50 57 102
50 58 29
50 59 219
50 60 184
50 61 153
50 62 173
50 63 174
50 64 209
50 65 81
50 66 154
50 67 21
50 68 56
50 69 216
50 70 158
50 71 127
50 72 124
50 73 97
50 74 13
50 75 145
50 76 174
50 77 133
50 78 151
50 79 188
50 80 202
51 52 52
51 53 8
51 54 10
51 55 200
51 56 81
51 57 165
51 58 110
51 59 188
51 60 149
51 61 160
51 62 69
51 63 195
51 64 144
51 65 87
51 66 175
51 67 21
51 68 104
51 69 85
51 70 155
51 71 192
51 72 61
51 73 193
51 74 100
51 75 131
51 76 147
51 77 159
51 78 135
51 79 55
51 80 0
52 53 223
52 54 147
52 55 32
52 56 28
52 57 195
52 58 221
52 59 77
52 60 137
52 61 203
52 62 205
52 63 131
52 64 121
52 65 3
52 66 47
52 67 88
52 68 168
52 69 225
52 70 58
52 71 202
52 72 169
52 73 129
52 74 83
52 75 76
52 76 61
52 77 51
52 78 47
52 79 231
52 80 37
53 54 167
53 55 28
53 56 12
53 57 40
53 58 106
53 59 38
53 60 163
53 61 224
53 62 175
53 63 143
53 64 40
53 65 74
53 66 232
53 67 208
53 68 9
53 69 157
53 70 40
53 71 226
53 72 219
53 73 218
53 74 93
53 75 105
53 76 31
53 77 5
53 78 93
53 79 73
53 80 82
54 55 184
54 56 238
54 57 128
54 58 125
54 59 90
54 60 43
54 61 148
54 62 137
54 63 160
54 64 146
54 65 52
54 66 203
54 67 168
54 68 149
54 69 104
54 70 224
54 71 64
54 72 184
54 73 148
54 74 99
54 75 170
54 76 206
54 77 44
54 78 109
54 79 135
54 80 235
55 56 183
55 57 120
55 58 149
55 59 61
55 60 116
55 61 209
55 62 175
55 63 171
55 64 175
55 65 28
55 66 116
55 67 196
55 68 104
55 69 58
55 70 206
55 71 225
55 72 32
55 73 163
55 74 27
55 75 45
55 76 166
55 77 178
55 78 204
55 79 39
55 80 96
56 57 178
56 58 92
56 59 221
56 60 204
56 61 13
56 62 116
56 63 1
56 64 176
56 65 232
56 66 170
56 67 96
56 68 93
56 69 80
56 70 61
56 71 175
56 72 237
56 73 143
56 74 35
56 75 37
56 76 173
56 77 230
56 78 166
56 79 171
56 80 186
57 58 122
57 59 197
57 60 36
57 61 84
57 62 111
57 63 41
57 64 221
57 65 120
57 66 56
57 67 64
57 68 57
57 69 179
57 70 54
57 71 92
57 72 163
57 73 192
57 74 49
57 75 143
57 76 59
57 77 140
57 78 49
57 79 77
57 80 171
58 59 34
58 60 114
58 61 219
58 62 186
58 63 8
58 64 37
58 65 43
58 66 138
58 67 154
58 68 232
58 69 48
58 70 80
58 71 143
58 72 107
58 73 138
58 74 54
58 75 155
58 76 165
58 77 196
58 78 26
58 79 187
58 80 129
59 60 78
59 61 175
59 62 48
59 63 197
59 64 42
59 65 128
59 66 3
59 67 150
59 68 113
59 69 89
59 70 152
59 71 160
59 72 228
59 73 206
59 74 13
59 75 130
59 76 103
59 77 212
59 78 30
59 79 170
59 80 82
60 61 95
60 62 126
60 63 112
60 64 101
60 65 209
60 66 70
60 67 219
60 68 218
60 69 75
60 70 130
60 71 22
60 72 84
60 73 182
60 74 193
60 75 124
60 76 7
60 77 73
60 78 56
60 79 148
60 80 149
61 62 211
61 63 55
61 64 169
61 65 170
61 66 226
61 67 166
61 68 139
61 69 90
61 70 0
61 71 214
61 72 183
61 73 86
61 74 46
61 75 162
61 76 173
61 77 217
61 78 148
61 79 152
61 80 61
62 63 95
62 64 170
62 65 191
62 66 148
62 67 112
62 68 87
62 69 139
62 70 0
62 71 91
62 72 228
62 73 67
62 74 77
62 75 14
62 76 165
62 77 14
62 78 121
62 79 19
62 80 53
63 64 16
63 65 60
63 66 144
63 67 151
63 68 95
63 69 205
63 70 165
63 71 15
63 72 209
63 73 47
63 74 3
63 75 238
63 76 199
63 77 194
63 78 109
63 79 163
63 80 124
64 65 141
64 66 118
64 67 78
64 68 113
64 69 27
64 70 207
64 71 106
64 72 105
64 73 97
64 74 154
64 75 69
64 76 174
64 77 220
64 78 231
64 79 218
64 80 14
65 66 127
65 67 119
65 68 71
65 69 89
65 70 186
65 71 172
65 72 180
65 73 26
65 74 152
65 75 19
65 76 85
65 77 112
65 78 143
65 79 174
65 80 142
66 67 146
66 68 25
66 69 32
66 70 90
66 71 66
66 72 0
66 73 80
66 74 111
66 75 123
66 76 99
66 77 159
66 78 183
66 79 232
66 80 202
67 68 142
67 69 208
67 70 54
67 71 217
67 72 44
67 73 93
67 74 189
67 75 67
67 76 23
67 77 216
67 78 81
67 79 235
67 80 231
68 69 48
68 70 183
68 71 29
68 72 188
68 73 100
68 74 193
68 75 237
68 76 160
68 77 226
68 78 104
68 79 108
68 80 109
69 70 237
69 71 136
69 72 206
69 73 224
69 74 212
69 75 169
69 76 95
69 77 18
69 78 239
69 79 40
69 80 143
70 71 206
70 72 72
70 73 7
70 74 224
70 75 212
70 76 139
70 77 117
70 78 113
70 79 119
70 80 31
71 72 68
71 73 60
71 74 42
71 75 41
71 76 156
71 77 4
71 78 108
71 79 193
71 80 237
72 73 82
72 74 79
72 75 110
72 76 111
72 77 114
72 78 177
72 79 205
72 80 110
73 74 192
73 75 100
73 76 219
73 77 48
73 78 170
73 79 66
73 80 13
74 75 61
74 76 183
74 77 226
74 78 126
74 79 158
74 80 81
75 76 142
75 77 172
75 78 161
75 79 214
75 80 44
76 77 167
76 78 4
76 79 157
76 80 176
77 78 92
77 79 105
77 80 214
78 79 82
78 80 178
79 80 125
